
  12    4
  10   10   10   10

   0   0   0   0   0   3 2 3 7 
   2  10  10  10  10   4 11 10 6 4 
   1  10  10  10  10   3 9 5 4 
   9  10  10  10  10   1 8 
   5  10  10  10  10   1 8 
  10  10  10  10  10   1 8 
   1  10  10  10  10   1 8 
   8  10  10  10  10   1 12
   6  10  10  10  10   1 12
   5  10  10  10  10   1 12
   1  10  10  10  10   1 12
   0   0   0   0   0   0 
